NAME          DCAP_3_4_2_500_SS275
ROWS
 N  OBJ
 L  CON1
 L  CON2
 L  CON3
 L  CON4
 L  CON5
 L  CON6
 L  CON7
 L  CON8
 L  CON9
 L  CON10
 L  CON11
 L  CON12
 E  CON13
 E  CON14
 E  CON15
 E  CON16
 E  CON17
 E  CON18
 E  CON19
 E  CON20
COLUMNS
    x[1,1]    OBJ       6.180167      CON1      1.000000    
    x[1,1]    CON7      -1.000000     CON8      -1.000000   
    x[1,2]    OBJ       5.039546      CON2      1.000000    
    x[1,2]    CON8      -1.000000   
    x[2,1]    OBJ       6.732585      CON3      1.000000    
    x[2,1]    CON9      -1.000000     CON10     -1.000000   
    x[2,2]    OBJ       7.443064      CON4      1.000000    
    x[2,2]    CON10     -1.000000   
    x[3,1]    OBJ       6.563535      CON5      1.000000    
    x[3,1]    CON11     -1.000000     CON12     -1.000000   
    x[3,2]    OBJ       6.054841      CON6      1.000000    
    x[3,2]    CON12     -1.000000   
    MARKER    'MARKER'                'INTORG'
    u[1,1]    OBJ       48.076654     CON1      -1.000000   
    u[1,2]    OBJ       49.466655     CON2      -1.000000   
    u[2,1]    OBJ       49.996186     CON3      -1.000000   
    u[2,2]    OBJ       32.230043     CON4      -1.000000   
    u[3,1]    OBJ       20.066487     CON5      -1.000000   
    u[3,2]    OBJ       27.484319     CON6      -1.000000   
    y[1,1,1]  OBJ       8.108491      CON7      0.943251    
    y[1,1,1]  CON13     1.000000    
    y[1,1,2]  OBJ       6.438439      CON8      1.218756    
    y[1,1,2]  CON14     1.000000    
    y[1,2,1]  OBJ       8.655067      CON7      0.880292    
    y[1,2,1]  CON15     1.000000    
    y[1,2,2]  OBJ       5.109699      CON8      0.844145    
    y[1,2,2]  CON16     1.000000    
    y[1,3,1]  OBJ       6.325634      CON7      1.277755    
    y[1,3,1]  CON17     1.000000    
    y[1,3,2]  OBJ       9.587215      CON8      1.032333    
    y[1,3,2]  CON18     1.000000    
    y[1,4,1]  OBJ       7.564522      CON7      0.532266    
    y[1,4,1]  CON19     1.000000    
    y[1,4,2]  OBJ       9.832543      CON8      0.663271    
    y[1,4,2]  CON20     1.000000    
    y[2,1,1]  OBJ       7.824928      CON9      0.943251    
    y[2,1,1]  CON13     1.000000    
    y[2,1,2]  OBJ       8.521535      CON10     1.218756    
    y[2,1,2]  CON14     1.000000    
    y[2,2,1]  OBJ       8.953372      CON9      0.880292    
    y[2,2,1]  CON15     1.000000    
    y[2,2,2]  OBJ       5.447782      CON10     0.844145    
    y[2,2,2]  CON16     1.000000    
    y[2,3,1]  OBJ       8.617892      CON9      1.277755    
    y[2,3,1]  CON17     1.000000    
    y[2,3,2]  OBJ       8.895481      CON10     1.032333    
    y[2,3,2]  CON18     1.000000    
    y[2,4,1]  OBJ       5.285446      CON9      0.532266    
    y[2,4,1]  CON19     1.000000    
    y[2,4,2]  OBJ       5.696935      CON10     0.663271    
    y[2,4,2]  CON20     1.000000    
    y[3,1,1]  OBJ       5.405182      CON11     0.943251    
    y[3,1,1]  CON13     1.000000    
    y[3,1,2]  OBJ       8.056599      CON12     1.218756    
    y[3,1,2]  CON14     1.000000    
    y[3,2,1]  OBJ       9.072581      CON11     0.880292    
    y[3,2,1]  CON15     1.000000    
    y[3,2,2]  OBJ       9.116401      CON12     0.844145    
    y[3,2,2]  CON16     1.000000    
    y[3,3,1]  OBJ       8.763511      CON11     1.277755    
    y[3,3,1]  CON17     1.000000    
    y[3,3,2]  OBJ       9.465991      CON12     1.032333    
    y[3,3,2]  CON18     1.000000    
    y[3,4,1]  OBJ       7.443126      CON11     0.532266    
    y[3,4,1]  CON19     1.000000    
    y[3,4,2]  OBJ       9.043526      CON12     0.663271    
    y[3,4,2]  CON20     1.000000    
    z[1,1]    OBJ       861.591097    CON13     1.000000    
    z[1,2]    OBJ       607.733037    CON14     1.000000    
    z[2,1]    OBJ       587.345860    CON15     1.000000    
    z[2,2]    OBJ       623.186496    CON16     1.000000    
    z[3,1]    OBJ       805.917142    CON17     1.000000    
    z[3,2]    OBJ       789.148531    CON18     1.000000    
    z[4,1]    OBJ       706.515096    CON19     1.000000    
    z[4,2]    OBJ       769.794204    CON20     1.000000    
    MARKER    'MARKER'                 'INTEND'
RHS
    RHS       CON1      -0.000000     CON2      -0.000000   
    RHS       CON3      -0.000000     CON4      -0.000000   
    RHS       CON5      -0.000000     CON6      -0.000000   
    RHS       CON7      -0.000000     CON8      -0.000000   
    RHS       CON9      -0.000000     CON10     -0.000000   
    RHS       CON11     -0.000000     CON12     -0.000000   
    RHS       CON13     1.000000      CON14     1.000000    
    RHS       CON15     1.000000      CON16     1.000000    
    RHS       CON17     1.000000      CON18     1.000000    
    RHS       CON19     1.000000      CON20     1.000000    
BOUNDS
 BV BOUND     u[1,1]  
 BV BOUND     u[1,2]  
 BV BOUND     u[2,1]  
 BV BOUND     u[2,2]  
 BV BOUND     u[3,1]  
 BV BOUND     u[3,2]  
 BV BOUND     y[1,1,1]
 BV BOUND     y[1,1,2]
 BV BOUND     y[1,2,1]
 BV BOUND     y[1,2,2]
 BV BOUND     y[1,3,1]
 BV BOUND     y[1,3,2]
 BV BOUND     y[1,4,1]
 BV BOUND     y[1,4,2]
 BV BOUND     y[2,1,1]
 BV BOUND     y[2,1,2]
 BV BOUND     y[2,2,1]
 BV BOUND     y[2,2,2]
 BV BOUND     y[2,3,1]
 BV BOUND     y[2,3,2]
 BV BOUND     y[2,4,1]
 BV BOUND     y[2,4,2]
 BV BOUND     y[3,1,1]
 BV BOUND     y[3,1,2]
 BV BOUND     y[3,2,1]
 BV BOUND     y[3,2,2]
 BV BOUND     y[3,3,1]
 BV BOUND     y[3,3,2]
 BV BOUND     y[3,4,1]
 BV BOUND     y[3,4,2]
 BV BOUND     z[1,1]  
 BV BOUND     z[1,2]  
 BV BOUND     z[2,1]  
 BV BOUND     z[2,2]  
 BV BOUND     z[3,1]  
 BV BOUND     z[3,2]  
 BV BOUND     z[4,1]  
 BV BOUND     z[4,2]  
ENDATA
